# FHI-aims file: /home/bepdansp/vibes_test/data_gen/pbe/tight/tier1/zora/6/Li8S4/relaxation/geometry.in.next_step
# Created using the Atomic Simulation Environment (ASE)
# Thu Oct 20 17:43:25 2022

# Additional information:
#  Relaxed with BFGS, fmax=1.000 meV/AA
#  nsteps = 3
#  residual force  = 0.000028 meV/AA
#  residual stress = 0.283813 meV/AA
#=======================================================
lattice_vector 5.7224443849859998 0.0000000000650000 -0.0000000000060000 
lattice_vector 0.0000000000650000 5.7224413677030004 -0.0000000000120000 
lattice_vector -0.0000000000060000 -0.0000000000120000 5.7224413656510000 
atom_frac 0.2500000000170000 0.2500000000110000 0.7499999999980000 Li
atom_frac 0.2500000000160000 0.7500000000120000 0.2499999999970000 Li
atom_frac 0.7500000000160000 0.2500000000120000 0.2499999999960000 Li
atom_frac 0.7500000000160000 0.7500000000109999 0.7499999999960000 Li
atom_frac 0.7500000000160000 0.7500000000109999 0.2499999999970000 Li
atom_frac 0.7500000000150000 0.2500000000110000 0.7499999999969998 Li
atom_frac 0.2500000000160000 0.7500000000120000 0.7499999999960000 Li
atom_frac 0.2500000000160000 0.2500000000110000 0.2499999999960000 Li
atom_frac 0.0000000000050000 -0.0000000000060000 0.0000000000110000 S
atom_frac 0.0000000000060000 0.4999999999420000 0.5000000000010000 S
atom_frac 0.4999999999359999 0.0000000000030000 0.4999999999609999 S
atom_frac 0.4999999999240000 0.4999999999720000 0.0000000000520000 S
