# Created using the Atomic Simulation Environment (ASE)
# Sun Nov  6 01:03:01 2022
#=======================================================
lattice_vector 5.4270329999999998 0.0000000000000000 0.0000000000000000 
lattice_vector 2.9758811049380882 4.5383718261466264 0.0000000000000000 
lattice_vector 2.9758811049380882 1.6072584815161119 4.2442359743487383 
atom_frac 0.5652338099999999 0.9347661900000001 0.2500000000000000 O
atom_frac 0.2499999999999999 0.5652338100000001 0.9347661900000001 O
atom_frac 0.9347661900000001 0.2500000000000000 0.5652338099999999 O
atom_frac 0.4347661899999999 0.0652338120000000 0.7500000000000000 O
atom_frac 0.7499999999999999 0.4347661900000000 0.0652338120000000 O
atom_frac 0.0652338120000001 0.7500000000000001 0.4347661900000000 O
atom_frac 0.3422953200000000 0.3422953200000000 0.3422953200000000 Ti
atom_frac 0.1577046800000000 0.1577046800000000 0.1577046800000000 Ti
atom_frac 0.6577046800000000 0.6577046800000002 0.6577046800000000 Ti
atom_frac 0.8422953200000000 0.8422953200000000 0.8422953200000000 Ti
