  #=======================================================
  # FHI-aims file: ./geometry.in
  # Created using the Atomic Simulation Environment (ASE)
  # Tue Nov  1 18:24:40 2022
  #=======================================================
  lattice_vector 2.9779100000000001 0.0000000000000000 0.0000000000000000
  lattice_vector 1.4889550000000003 2.5789457101837177 0.0000000000000000
  lattice_vector 1.4889550000000003 0.8596485700612394 2.4314533333104844
  atom_frac 0.0000000000000000 0.0000000000000000 0.0000000000000000 Mg
  atom_frac 0.4999999999999999 0.4999999999999999 0.4999999999999999 O
