#===============================================================================
# FHI-aims file: tests/data/test/expansion_None/pbe/tight/minimal/atomic_zora/4/MgO/control.in
# Created using the Atomic Simulation Environment (ASE)
# Tue May  5 10:10:50 2020
#===============================================================================
sc_accuracy_rho                    1e-05
sc_accuracy_eev                    1e-05
sc_accuracy_etot                   1e-05
sc_iter_limit                      800
occupation_type                    fermi 0.1
spin                               none
charge                             0.0
mixer                              pulay
n_max_pulay                        10
charge_mix_param                   0.05
preconditioner                     kerker 1.5
override_relativity                .true.
override_illconditioning           .true.
dos_kgrid_factors                  3 3 3
output                             atom_proj_dos -20 10 1000 0.01
output                             dos -20 10 1000 0.01
output                             quadrupole
output                             hirshfeld
k_grid                             26 26 26
xc                                 pbe
relativistic                       atomic_zora scalar
sc_accuracy_forces                 0.0001
compute_forces                     .true.
compute_analytical_stress          .true.
#===============================================================================

