#=======================================================
# FHI-aims file: tests/data/test/expansion_None/pbe/tight/minimal/atomic_zora/4/MgO/geometry.in
# Created using the Atomic Simulation Environment (ASE)
# Tue May  5 10:10:50 2020
#=======================================================
lattice_vector 1.0000000000000000 0.0000000000000000 0.0000000000000000 
lattice_vector 0.0000000000000000 1.0000000000000000 0.0000000000000000 
lattice_vector 0.0000000000000000 0.0000000000000000 1.0000000000000000 
atom_frac 0.0000000000000000 0.0000000000000000 0.0000000000000000 Mg
atom_frac 0.0000000000000000 0.0000000000000000 0.0000000000000000 O
