#=======================================================
# FHI-aims file: tests/data/test/pbe/tight/tier2/atomic_zora/4/RhSi/geometry.in
# Created using the Atomic Simulation Environment (ASE)
# Tue Oct 25 23:23:37 2022
#=======================================================
lattice_vector 1.0000000000000000 0.0000000000000000 0.0000000000000000 
lattice_vector 0.0000000000000000 1.0000000000000000 0.0000000000000000 
lattice_vector 0.0000000000000000 0.0000000000000000 1.0000000000000000 
atom_frac 0.0000000000000000 0.0000000000000000 0.0000000000000000 Si
atom_frac 0.0000000000000000 0.0000000000000000 0.0000000000000000 Rh
