#=======================================================
# FHI-aims file: /home/bepdansp/aflow_binaries_vibes_1000_1999/pbe/tight/tier2/atomic_zora/8/Si4Sr8_ICSD_422/relaxation/geometry.in.next_step
# Created using the Atomic Simulation Environment (ASE)
# Sun Nov 20 06:20:59 2022

# Additional information:
#  Relaxed with BFGS, fmax=1.000 meV/AA
#  nsteps = 10
#  residual force  = 0.856000 meV/AA
#  residual stress = 0.428414 meV/AA
#=======================================================
lattice_vector 5.1422319026050003 0.0000000000000000 0.0000000000000000 
lattice_vector -0.0000000000000000 8.1183449353589996 0.0000000000000000 
lattice_vector 0.0000000000000000 0.0000000000000000 9.6058248230479997 
atom_frac 0.2500000000000000 0.2522904376540000 0.8973590893820000 Si
atom_frac 0.7500000000000000 0.2477095623460000 0.3973590893820000 Si
atom_frac 0.7500000000000000 0.7477095623470000 0.1026409106180000 Si
atom_frac 0.2500000000000000 0.7522904376540001 0.6026409106180000 Si
atom_frac 0.2500000000000000 0.6505046514490000 0.9222157447050000 Sr
atom_frac 0.7500000000000000 0.8494953485510000 0.4222157447050000 Sr
atom_frac 0.7500000000000000 0.3494953485510000 0.0777842552950000 Sr
atom_frac 0.2500000000000000 0.1505046514490000 0.5777842552950000 Sr
atom_frac 0.2500000000000000 0.5187862796029999 0.3266376811350000 Sr
atom_frac 0.7500000000000000 0.9812137203970002 0.8266376811350000 Sr
atom_frac 0.7500000000000000 0.4812137203970000 0.6733623188650000 Sr
atom_frac 0.2500000000000000 0.0187862796030000 0.1733623188650000 Sr
