#=======================================================
# FHI-aims file: tests/data/test/pbe/light/minimal/atomic_zora/4/RhSi_ICSD_988/geometry.in
# Created using the Atomic Simulation Environment (ASE)
# Fri Oct 28 15:09:26 2022
#=======================================================
lattice_vector 1.0000000000000000 0.0000000000000000 0.0000000000000000 
lattice_vector 0.0000000000000000 1.0000000000000000 0.0000000000000000 
lattice_vector 0.0000000000000000 0.0000000000000000 1.0000000000000000 
atom_frac 0.0000000000000000 0.0000000000000000 0.0000000000000000 Si
atom_frac 0.0000000000000000 0.0000000000000000 0.0000000000000000 Rh
