#=======================================================
# FHI-aims file: tests/data/test/expansion_1dot05/pbe/tight/minimal/atomic_zora/2/RhSi/geometry.in
# Created using the Atomic Simulation Environment (ASE)
# Mon May  4 19:20:54 2020
#=======================================================
lattice_vector 1.0163963568148535 0.0000000000000000 0.0000000000000000 
lattice_vector 0.0000000000000000 1.0163963568148535 0.0000000000000000 
lattice_vector 0.0000000000000000 0.0000000000000000 1.0163963568148535 
atom_frac 0.0000000000000000 0.0000000000000000 0.0000000000000000 Si
atom_frac 0.0000000000000000 0.0000000000000000 0.0000000000000000 Rh
