#=======================================================
# FHI-aims file: /u/dansp/gen_error_data/test_run/expansion_None/pbe/light/minimal/atomic_zora/8/C4Ta4/geometry.in
# Created using the Atomic Simulation Environment (ASE)
# Wed May  6 18:43:13 2020
#=======================================================
lattice_vector 4.4530000000000003 0.0000000000000000 0.0000000000000000 
lattice_vector 0.0000000000000003 4.4530000000000003 0.0000000000000000 
lattice_vector 0.0000000000000003 0.0000000000000003 4.4530000000000003 
atom_frac 0.5000000000000000 0.5000000000000000 0.5000000000000000 C
atom_frac 0.5000000000000000 0.0000000000000000 0.0000000000000000 C
atom_frac -0.0000000000000000 0.5000000000000000 0.0000000000000000 C
atom_frac -0.0000000000000000 -0.0000000000000000 0.5000000000000000 C
atom_frac 0.0000000000000000 0.0000000000000000 0.0000000000000000 Ta
atom_frac 0.0000000000000000 0.5000000000000000 0.5000000000000000 Ta
atom_frac 0.5000000000000000 -0.0000000000000000 0.5000000000000000 Ta
atom_frac 0.5000000000000000 0.5000000000000000 0.0000000000000000 Ta
