#=======================================================
# FHI-aims file: /home/bepdansp/aflow_binaries_vibes_1000_1999/pbe/tight/tier2/atomic_zora/8/Si4Sr8_ICSD_422/geometry.in
# Created using the Atomic Simulation Environment (ASE)
# Sun Nov 20 02:56:46 2022
#=======================================================
lattice_vector 5.1431222311870002 -0.0000000000000000 0.0000000000000000 
lattice_vector 0.0000000000000000 8.1187471589349993 0.0000000000000000 
lattice_vector 0.0000000000000000 0.0000000000000000 9.5981648580550001 
atom_frac 0.2500000000000000 0.2524672161830000 0.8975828803930002 Si
atom_frac 0.7500000000000000 0.2475327838170000 0.3975828803930000 Si
atom_frac 0.7500000000000000 0.7475327838169999 0.1024171196070000 Si
atom_frac 0.2500000000000000 0.7524672161830001 0.6024171196070000 Si
atom_frac 0.2500000000000000 0.6505228756030000 0.9220932029030001 Sr
atom_frac 0.7500000000000000 0.8494771243970000 0.4220932029030002 Sr
atom_frac 0.7500000000000000 0.3494771243970000 0.0779067970970000 Sr
atom_frac 0.2500000000000000 0.1505228756030000 0.5779067970970000 Sr
atom_frac 0.2500000000000000 0.5187555639260000 0.3265814637640000 Sr
atom_frac 0.7500000000000000 0.9812444360740000 0.8265814637640000 Sr
atom_frac 0.7500000000000000 0.4812444360740000 0.6734185362360001 Sr
atom_frac 0.2500000000000000 0.0187555639260000 0.1734185362360000 Sr