# FHI-aims file: /home/bepdansp/vibes_test/data_gen/pbe/tight/tier1/zora/6/Li8S4/geometry.in
# Created using the Atomic Simulation Environment (ASE)
# Thu Oct 20 15:15:17 2022
#=======================================================
lattice_vector 5.7599999999999998 0.0000000000000000 0.0000000000000000 
lattice_vector 0.0000000000000000 5.7599999999999998 0.0000000000000000 
lattice_vector 0.0000000000000000 0.0000000000000000 5.7599999999999998 
atom_frac 0.2499999999999999 0.2499999999999999 0.7500000000000000 Li
atom_frac 0.2499999999999999 0.7500000000000000 0.2499999999999999 Li
atom_frac 0.7500000000000000 0.2499999999999999 0.2499999999999999 Li
atom_frac 0.7500000000000000 0.7500000000000000 0.7500000000000000 Li
atom_frac 0.7500000000000000 0.7500000000000000 0.2499999999999999 Li
atom_frac 0.7500000000000000 0.2499999999999999 0.7500000000000000 Li
atom_frac 0.2499999999999999 0.7500000000000000 0.7500000000000000 Li
atom_frac 0.2499999999999999 0.2499999999999999 0.2499999999999999 Li
atom_frac 0.0000000000000000 0.0000000000000000 0.0000000000000000 S
atom_frac 0.0000000000000000 0.4999999999999999 0.4999999999999999 S
atom_frac 0.4999999999999999 0.0000000000000000 0.4999999999999999 S
atom_frac 0.4999999999999999 0.4999999999999999 0.0000000000000000 S