#=====================================================
#FHI-aims file: /eos/scratch/biebj/binaries/binaries_unrelaxed/pbe/light/minimal/atomic_zora/4/04_Be/control.in
#Created using the Atomic Simulation Environment (ASE)
#
#List of parameters used to initialize the calculator:
#=====================================================
charge_mix_param                   0.01
sc_iter_limit                      8000
relativistic                       atomic_zora scalar
compute_analytical_stress          .true.
sc_accuracy_rho                    1e-05
charge                             0.0
dos_kgrid_factors                  3 3 3
xc                                 pbe
override_relativity                .true.
k_grid                             6 6 6
preconditioner                     kerker 1.5
n_max_pulay                        10
occupation_type                    fermi 0.1
spin                               none
compute_forces                     .true.
override_illconditioning           .true.
mixer                              pulay
sc_accuracy_etot                   1e-05
sc_accuracy_eev                    1e-05
sc_accuracy_forces                 0.0001
output                             atom_proj_dos -20 10 1000 0.01
output                             dos -20 10 1000 0.01
output                             quadrupole
output                             hirshfeld
output                             band 0.0 0.0 0.0 0.5 0.0 0.5 20 \Gamma X
output                             band 0.5 0.0 0.5 0.5 0.25 0.75 20 X W
output                             band 0.5 0.25 0.75 0.375 0.375 0.75 20 W K
output                             band 0.375 0.375 0.75 0.0 0.0 0.0 20 K \Gamma
output                             band 0.0 0.0 0.0 0.5 0.5 0.5 20 \Gamma L
output                             band 0.5 0.5 0.5 0.625 0.25 0.625 20 L U
output                             band 0.625 0.25 0.625 0.5 0.25 0.75 20 U W
output                             band 0.5 0.25 0.75 0.5 0.5 0.5 20 W L
output                             band 0.5 0.5 0.5 0.375 0.375 0.75 20 L K
output                             band 0.625 0.25 0.625 0.5 0.0 0.5 20 U X
#=======================================================

################################################################################
#
#  FHI-aims code project
#  VB, Fritz-Haber Institut, 2009
#
#  Suggested "light" defaults for S atom (to be pasted into control.in file)
#  Be sure to double-check any results obtained with these settings for post-processing,
#  e.g., with the "tight" defaults and larger basis sets.
#
################################################################################
  species        S
#     global species definitions
    nucleus             16
    mass                32.065
#
    l_hartree           4
#
    cut_pot             3.5          1.5  1.0
    basis_dep_cutoff    1e-4
#
    radial_base         44 5.0
    radial_multiplier   1
    angular_grids       specified
      division   0.4665  110
      division   0.5810  194
      division   0.7139  302
#      division   0.8274  434
#      division   0.9105  590
#      division   1.0975  770
#      division   1.2028  974
#      outer_grid  974
      outer_grid  302
################################################################################
#
#  Definition of "minimal" basis
#
################################################################################
#     valence basis states
    valence      3  s   2.
    valence      3  p   4.
#     ion occupancy
    ion_occ      3  s   1.
    ion_occ      3  p   3.
################################################################################
#
#  Suggested additional basis functions. For production calculations, 
#  uncomment them one after another (the most important basis functions are
#  listed first).
#
#  Constructed for dimers: 1.6 A, 1.9 A, 2.5 A, 3.25 A, 4.0 A
#
################################################################################
#  "First tier" - improvements: -652.81 meV to -45.53 meV
#     ionic 3 d auto
#     hydro 2 p 1.8
#     hydro 4 f 7
#     ionic 3 s auto
#  "Second tier" - improvements: -30.20 meV to -1.74 meV
#     hydro 4 d 6.2
#     hydro 5 g 10.8
#     hydro 4 p 4.9
#     hydro 5 f 10
#     hydro 1 s 0.8
#  "Third tier" - improvements: -1.04 meV to -0.20 meV
#     hydro 3 d 3.9
#     hydro 3 d 2.7
#     hydro 5 g 12
#     hydro 4 p 10.4
#     hydro 5 f 12.4
#     hydro 2 s 1.9
#  "Fourth tier" - improvements: -0.35 meV to -0.06 meV
#     hydro 4 d 10.4
#     hydro 4 p 7.2
#     hydro 4 d 10
#     hydro 5 g 19.2
#     hydro 4 s 12
#
################################################################################
#
#  FHI-aims code project
#  VB, Fritz-Haber Institut, 2009
#
#  Suggested "light" defaults for Be atom (to be pasted into control.in file)
#  Be sure to double-check any results obtained with these settings for post-processing,
#  e.g., with the "tight" defaults and larger basis sets.
#
################################################################################
  species        Be
#     global species definitions
    nucleus             4
    mass                9.012182
#
    l_hartree           4
#
    cut_pot             3.5  1.5  1.0
    basis_dep_cutoff    1e-4
#     
    radial_base         31 5.0
    radial_multiplier   1
    angular_grids       specified
      division   0.4283  110
      division   0.4792  194
      division   0.5061  302
#      division   0.7227  434
#      division   0.8724  590
#      division   0.9555  770
#      division   2.9770  974
#      outer_grid   974
      outer_grid 302
################################################################################
#
#  Definition of "minimal" basis
#
################################################################################
#     valence basis states
    valence      2  s   2.
#     ion occupancy
    ion_occ      2  s   1.
################################################################################
#
#  Suggested additional basis functions. For production calculations, 
#  uncomment them one after another (the most important basis functions are
#  listed first).
#
#  Constructed for dimers: 1.75 A, 2.0 A, 2.375 A, 3.00 A, 4.00 A
#
################################################################################
#  "First tier" - improvements: -677.26 meV to -34.75 meV
#     ionic 2 p auto
#     hydro 3 s 2.9
#     hydro 3 d 3.5
#  "Second tier" - improvements: -16.34 meV to -1.26 meV
#     hydro 3 p 3.1
#     hydro 4 d 4.7
#     hydro 3 p 2.4
#     hydro 4 f 7.6
#     hydro 2 s 2.9
#  "Third tier" - improvements: -0.27 meV to -0.05 meV
#     hydro 2 p 8.2
#     hydro 5 g 10.8
#     hydro 4 f 7
#     hydro 3 s 2.3
#     hydro 4 d 3.8
