#=======================================================
# FHI-aims file: /home/dts/Documents/theory/errorbar_modelling/tests/data/test/pbe/light/tier1/atomic_zora/4/RhSi_ICSD_988/bandstructure/geometry.in
# Created using the Atomic Simulation Environment (ASE)
# Thu Aug 31 00:13:22 2023
#=======================================================
lattice_vector 1.0000000000000000 0.0000000000000000 0.0000000000000000 
lattice_vector 0.0000000000000000 1.0000000000000000 0.0000000000000000 
lattice_vector 0.0000000000000000 0.0000000000000000 1.0000000000000000 
atom_frac 0.0000000000000000 0.0000000000000000 0.0000000000000000 Si
atom_frac 0.0000000000000000 0.0000000000000000 0.0000000000000000 Rh
