#=======================================================
#FHI-aims file: /eos/scratch/biebj/binaries/binaries_unrelaxed/pbe/light/minimal/atomic_zora/4/04_Be/geometry.in
#Created using the Atomic Simulation Environment (ASE)
#=======================================================
lattice_vector 4.8830000000000000 0.0000000000000000 0.0000000000000000 
lattice_vector 0.0000000000000003 4.8830000000000000 0.0000000000000000 
lattice_vector 0.0000000000000003 0.0000000000000003 4.8830000000000000 
atom 1.2207500000000000 1.2207500000000000 1.2207500000000000 S
atom 3.6622500000000007 3.6622500000000002 1.2207500000000000 S
atom 3.6622500000000007 1.2207500000000002 3.6622500000000002 S
atom 1.2207500000000004 3.6622500000000007 3.6622500000000002 S
atom 0.0000000000000000 0.0000000000000000 0.0000000000000000 Be
atom 0.0000000000000003 2.4415000000000000 2.4415000000000000 Be
atom 2.4415000000000000 0.0000000000000001 2.4415000000000000 Be
atom 2.4415000000000000 2.4415000000000000 0.0000000000000000 Be
