#=====================================================
#FHI-aims file: /eos/scratch/biebj/binaries/binaries_unrelaxed/pbe/tight/minimal/atomic_zora/8/73_Ta/control.in
#Created using the Atomic Simulation Environment (ASE)
#
#List of parameters used to initialize the calculator:
#=====================================================
charge_mix_param                   0.01
sc_iter_limit                      8000
relativistic                       atomic_zora scalar
compute_analytical_stress          .true.
sc_accuracy_rho                    1e-05
charge                             0.0
dos_kgrid_factors                  3 3 3
xc                                 pbe
override_relativity                .true.
k_grid                             12 12 12
preconditioner                     kerker 1.5
n_max_pulay                        10
occupation_type                    fermi 0.1
spin                               none
compute_forces                     .true.
override_illconditioning           .true.
mixer                              pulay
sc_accuracy_etot                   1e-05
sc_accuracy_eev                    1e-05
sc_accuracy_forces                 0.0001
output                             atom_proj_dos -20 10 1000 0.01
output                             dos -20 10 1000 0.01
output                             quadrupole
output                             hirshfeld
output                             band 0.0 0.0 0.0 0.5 0.0 0.5 20 \Gamma X
output                             band 0.5 0.0 0.5 0.5 0.25 0.75 20 X W
output                             band 0.5 0.25 0.75 0.375 0.375 0.75 20 W K
output                             band 0.375 0.375 0.75 0.0 0.0 0.0 20 K \Gamma
output                             band 0.0 0.0 0.0 0.5 0.5 0.5 20 \Gamma L
output                             band 0.5 0.5 0.5 0.625 0.25 0.625 20 L U
output                             band 0.625 0.25 0.625 0.5 0.25 0.75 20 U W
output                             band 0.5 0.25 0.75 0.5 0.5 0.5 20 W L
output                             band 0.5 0.5 0.5 0.375 0.375 0.75 20 L K
output                             band 0.625 0.25 0.625 0.5 0.0 0.5 20 U X
#=======================================================

################################################################################
#
#  FHI-aims code project
# Volker Blum, Fritz Haber Institute Berlin, 2009
#
#  Suggested "tight" defaults for C atom (to be pasted into control.in file)
#
################################################################################
  species        C
#     global species definitions
    nucleus             6
    mass                12.0107
#
    l_hartree           6
#
    cut_pot             4.0  2.0  1.0
    basis_dep_cutoff    1e-4
#
    radial_base         34 7.0
    radial_multiplier   2
    angular_grids specified
      division   0.2187   50
      division   0.4416  110
      division   0.6335  194
      division   0.7727  302
      division   0.8772  434
#      division   0.9334  590
#      division   0.9924  770
#      division   1.0230  974
#      division   1.5020 1202
#     outer_grid  974
      outer_grid  434
################################################################################
#
#  Definition of "minimal" basis
#
################################################################################
#     valence basis states
    valence      2  s   2.
    valence      2  p   2.
#     ion occupancy
    ion_occ      2  s   1.
    ion_occ      2  p   1.
################################################################################
#
#  Suggested additional basis functions. For production calculations, 
#  uncomment them one after another (the most important basis functions are
#  listed first).
#
#  Constructed for dimers: 1.0 A, 1.25 A, 1.5 A, 2.0 A, 3.0 A
#
################################################################################
#  "First tier" - improvements: -1214.57 meV to -155.61 meV
#     hydro 2 p 1.7
#     hydro 3 d 6
#     hydro 2 s 4.9
#  "Second tier" - improvements: -67.75 meV to -5.23 meV
#     hydro 4 f 9.8
#     hydro 3 p 5.2
#     hydro 3 s 4.3
#     hydro 5 g 14.4
#     hydro 3 d 6.2
#  "Third tier" - improvements: -2.43 meV to -0.60 meV
#     hydro 2 p 5.6
#     hydro 2 s 1.4
#     hydro 3 d 4.9
#     hydro 4 f 11.2
#  "Fourth tier" - improvements: -0.39 meV to -0.18 meV
#     hydro 2 p 2.1
#     hydro 5 g 16.4
#     hydro 4 d 13.2
#     hydro 3 s 13.6
#     hydro 4 f 17.6
#  Further basis functions - improvements: -0.08 meV and below
#     hydro 3 s 2
#     hydro 3 p 6
#     hydro 4 d 20
################################################################################
#
# For methods that use the localized form of the "resolution of identity" for
# the two-electron Coulomb operator (RI_method LVL), particularly Hartree-Fock and
# hybrid density functional calculations, the highest accuracy can be obtained by
# uncommenting the line beginning with "for_aux"  below, thus adding an extra g radial
# function to the construction of the product basis set for the expansion.
# See Ref. New J. Phys. 17, 093020 (2015) for more information, particularly Figs. 1 and 6.
#
################################################################################
#
# for_aux hydro 5 g 6.0
################################################################################
#
#  FHI-aims code project
# Volker Blum, Fritz Haber Institute Berlin, 2009
#
#  Suggested "tight" defaults for Ta atom (to be pasted into control.in file)
#
################################################################################
  species          Ta
#     global species definitions
    nucleus        73
    mass           180.94788
#
    l_hartree      6
#
    cut_pot        4.0  2.0  1.0
    basis_dep_cutoff    1e-4
#
    radial_base    71  7.0
    radial_multiplier  2
    angular_grids specified
      division   0.2960   50
      division   0.7533  110
      division   1.1144  194
      division   1.3207  302
      division   1.5443  434
#      division   1.8111  590
#      division   2.0726  770
#      division   2.1374  974
#      division   2.9879 1202
#      outer_grid  974
      outer_grid  434
################################################################################
#
#  Definition of "minimal" basis
#
################################################################################
#     valence basis states
    valence      6  s   2.
    valence      5  p   6.
    valence      5  d   3.
    valence      4  f  14.
#     ion occupancy
    ion_occ      6  s   1.
    ion_occ      5  p   6.
    ion_occ      5  d   2.
    ion_occ      4  f  14.
################################################################################
#
#  Suggested additional basis functions. For production calculations, 
#  uncomment them one after another (the most important basis functions are
#  listed first).
#
#  Constructed for dimers: 1.85, 2.12, 2.625, 3.25, 4.50 AA
#
################################################################################
#
#  "First tier" - improvements: -461.64 meV to -31.84 meV
#     hydro 4 f 7
#     hydro 4 d 5.6
#     ionic 6 p auto
#     hydro 5 g 11.6
#     ionic 6 s auto
#  "Second tier" - improvements: -26.62 meV to -1.73 meV
#     ionic 5 d auto
#     hydro 6 h 15.2
#     hydro 4 f 9.2
#     hydro 5 g 17.6
#     hydro 4 p 4.7
#     hydro 1 s 0.5  
#  "Third tier" - max. impr. -6.67 meV, min. impr. -0.18 meV
#     hydro 5 d 8  
#     hydro 6 h 20
#     hydro 5 g 38
#     hydro 5 f 8.4
#     hydro 2 p 1.3
#     hydro 5 s 9.4  
#  "Fourth tier" - max. impr. -0.76 meV, min. impr. -0.13 meV
#     hydro 5 g 10.8
#     hydro 6 p 14.8
#     hydro 6 h 20.4
#     hydro 5 f 21.2
#     hydro 4 p 11.6
#     hydro 4 f 3.9
#     hydro 6 d 13.6
#     hydro 4 s 4.6
