#=======================================================
# FHI-aims file: tests/data/test/expansion_None/pbe/light/minimal/atomic_zora/4/Be4S4/geometry.in
# Created using the Atomic Simulation Environment (ASE)
# Tue May 26 15:10:05 2020
#=======================================================
lattice_vector 4.8830000000000000 0.0000000000000000 0.0000000000000000 
lattice_vector 0.0000000000000003 4.8830000000000000 0.0000000000000000 
lattice_vector 0.0000000000000003 0.0000000000000003 4.8830000000000000 
atom_frac 0.2500000000000000 0.2500000000000000 0.2500000000000000 S
atom_frac 0.7500000000000000 0.7500000000000000 0.2500000000000000 S
atom_frac 0.7500000000000000 0.2500000000000000 0.7500000000000000 S
atom_frac 0.2500000000000000 0.7500000000000000 0.7500000000000000 S
atom_frac 0.0000000000000000 0.0000000000000000 0.0000000000000000 Be
atom_frac 0.0000000000000000 0.5000000000000000 0.5000000000000000 Be
atom_frac 0.5000000000000000 0.0000000000000000 0.5000000000000000 Be
atom_frac 0.5000000000000000 0.5000000000000000 0.0000000000000000 Be
