#===============================================================================
# FHI-aims file: ./control.in
# Created using the Atomic Simulation Environment (ASE)
# Sun Nov 20 03:25:08 2022
#===============================================================================
xc                                 pbe
occupation_acc                     1e-08
sc_accuracy_rho                    1e-05
sc_accuracy_eev                    1e-05
sc_accuracy_etot                   1e-05
sc_iter_limit                      8000
occupation_type                    fermi 0.1
spin                               none
charge                             0.0
mixer                              pulay
n_max_pulay                        10
charge_mix_param                   0.01
preconditioner                     kerker 1.5
override_relativity                .true.
override_illconditioning           .true.
compensate_multipole_errors        .false.
relativistic                       atomic_zora scalar
sc_accuracy_forces                 0.0001
compute_forces                     .true.
compute_analytical_stress          .true.
k_grid                             10 7 6
output_level                       MD_light
use_pimd_wrapper                   localhost 12347
#===============================================================================

################################################################################
#
#  FHI-aims code project
#  Volker Blum, Fritz Haber Institute Berlin, 2009
#
#  Suggested "tight" defaults for Si atom (to be pasted into control.in file)
#
#  Revised Jan 04, 2011, following tests (SiC) done by Lydia Nemec: 
#     d and g functions of tier 2 now enabled by default.
#
################################################################################
  species        Si
#     global species definitions
    nucleus             14
    mass                28.0855
#
    l_hartree           6
#
    cut_pot             4.0          2.0  1.0
    basis_dep_cutoff    1e-4
#
    radial_base         42 7.0
    radial_multiplier   2
    angular_grids       specified
      division   0.4121   50
      division   0.7665  110
      division   1.0603  194
      division   1.2846  302
      division   1.4125  434
#      division   1.4810  590
#      division   1.5529  770
#      division   1.6284  974
#      division   2.6016 1202
#      outer_grid   974
      outer_grid  434
################################################################################
#
#  Definition of "minimal" basis
#
################################################################################
#     valence basis states
    valence      3  s   2.
    valence      3  p   2.
#     ion occupancy
    ion_occ      3  s   1.
    ion_occ      3  p   1.
################################################################################
#
#  Suggested additional basis functions. For production calculations, 
#  uncomment them one after another (the most important basis functions are
#  listed first).
#
#  Constructed for dimers: 1.75 A, 2.0 A, 2.25 A, 2.75 A, 3.75 A
#
################################################################################
#  "First tier" - improvements: -571.96 meV to -37.03 meV
     hydro 3 d 4.2
     hydro 2 p 1.4
     hydro 4 f 6.2
     ionic 3 s auto
#  "Second tier" - improvements: -16.76 meV to -3.03 meV
     hydro 3 d 9
     hydro 5 g 9.4
     hydro 4 p 4
     hydro 1 s 0.65
#  "Third tier" - improvements: -3.89 meV to -0.60 meV
#     ionic 3 d auto
#     hydro 3 s 2.6
#     hydro 4 f 8.4
#     hydro 3 d 3.4
#     hydro 3 p 7.8
#  "Fourth tier" - improvements: -0.33 meV to -0.11 meV
#     hydro 2 p 1.6
#     hydro 5 g 10.8
#     hydro 5 f 11.2
#     hydro 3 d 1
#     hydro 4 s 4.5
#  Further basis functions that fell out of the optimization - noise
#  level... < -0.08 meV
#     hydro 4 d 6.6
#     hydro 5 g 16.4
#     hydro 4 d 9
################################################################################
#
# For methods that use the localized form of the "resolution of identity" for
# the two-electron Coulomb operator (RI_method LVL), particularly Hartree-Fock and
# hybrid density functional calculations, the highest accuracy can be obtained by
# uncommenting the line beginning with "for_aux"  below, thus adding an extra g radial
# function to the construction of the product basis set for the expansion.
# See Ref. New J. Phys. 17, 093020 (2015) for more information, particularly Figs. 1 and 6.
#
################################################################################
#
# for_aux hydro 5 g 6.0
################################################################################
#
#  FHI-aims code project
#  Volker Blum, Fritz Haber Institute Berlin, 2009
#
#  Suggested "tight" defaults for Sr atom (to be pasted into control.in file)
#
#  2016/03/28 Added "g" function from tier 2 to default basis set (noticeable
#             improvement in Delta Project)
#
#  2018/01/30 Increased the cut_pot radius for "tight" to 6.0 AA to be consistent
#             with Rb, Cs, Ba. This is a VERY large value and will make especially
#             hybrid functional calculations very costly. However, our data for
#             neutral Sr containing systems support this value (it's just a big atom).
#             Consider reducing the cut_pot value for ionic bonding situations,
#             which could be entirely justified (see intermediate settings).
#
################################################################################
  species          Sr
#     global species definitions
    nucleus        38
    mass           87.62
#
    l_hartree      6
#
    cut_pot        6.0  2.0  1.0
    basis_dep_cutoff    1e-4
#
    radial_base    57  7.0
    radial_multiplier  2
    angular_grids specified
      division   0.6981  110
      division   0.9394  194
      division   1.1230  302
      division   1.2482  434
#      division   1.3391  590
#      division   1.4365  770
#      division   7.0005  974
#      outer_grid  974
      outer_grid  434
################################################################################
#
#  Definition of "minimal" basis
#
################################################################################
#     valence basis states
    valence      5  s   2.
    valence      4  p   6.
    valence      3  d  10.
#     ion occupancy
    ion_occ      5  s   1.
    ion_occ      4  p   6.
    ion_occ      3  d  10.
################################################################################
#
#  Suggested additional basis functions. For production calculations, 
#  uncomment them one after another (the most important basis functions are
#  listed first).
#
#  Constructed for dimers: 2.75, 3.50, 4.40, 5.00 A
#
################################################################################
#  "First tier" - improvements: -289.57 meV to -14.02 meV
     ionic 4 d auto
     ionic 5 p auto
     hydro 4 f 5.6
     ionic 5 s auto
#  "Second tier" - improvements: -4.95 meV to -0.45 meV
     hydro 5 g 7.4
     hydro 4 d 4.4
     hydro 3 p 3.3
     hydro 6 h 10.4
     hydro 5 s 4.9
     hydro 5 f 13.2
#  "Third tier" - improvements: -0.38 meV to -0.11 meV
#     hydro 6 p 4.8
#     hydro 5 f 6
#     hydro 2 p 1.2
#     hydro 1 s 0.55
#     hydro 5 d 3.6   
#  "Fourth tier" - improvements: -0.12 meV and lower.
#     hydro 5 p 5.2
#     hydro 4 f 14.8
#     hydro 5 g 7.6
#     hydro 4 p 4.5
#     hydro 5 d 5.4
#     hydro 6 s 6.8 