#=======================================================
# FHI-aims file: /scratch/usr/bepdansp/aflow_binaries_vibes_1000_1999/pbe/light/minimal/atomic_zora/8/Al16F48_ICSD_72174/bandstructure/geometry.in
# Created using the Atomic Simulation Environment (ASE)
# Sat Jun 24 23:13:13 2023
#=======================================================
lattice_vector 10.7601043612510008 -0.0000000000000000 -0.0000000000000000 
lattice_vector 0.0000000000000000 10.7601043612510008 -0.0000000000000000 
lattice_vector -0.0000000000000000 -0.0000000000000000 7.5717987814090000 
atom_frac 0.0000000000000000 0.0000000000000000 0.0000000000000000 Al
atom_frac 0.5000000000000000 0.5000000000000000 0.0000000000000000 Al
atom_frac 0.5000000000000000 0.0000000000000000 0.0000000000000000 Al
atom_frac 0.0000000000000000 0.5000000000000000 0.0000000000000000 Al
atom_frac 0.2500000000000000 0.9148752315849999 0.3266432999020000 Al
atom_frac 0.2500000000000000 0.5851247684150001 0.3266432999020000 Al
atom_frac 0.5851247684150001 0.2500000000000000 0.3266432999020000 Al
atom_frac 0.9148752315849999 0.2500000000000000 0.3266432999020000 Al
atom_frac 0.7500000000000000 0.4148752315850000 0.6733567000980000 Al
atom_frac 0.7500000000000000 0.0851247684150000 0.6733567000980000 Al
atom_frac 0.4148752315850000 0.7500000000000000 0.6733567000980000 Al
atom_frac 0.0851247684150000 0.7500000000000000 0.6733567000980000 Al
atom_frac 0.2500000000000000 0.2500000000000000 0.4133809509470000 Al
atom_frac 0.7500000000000000 0.7500000000000000 0.5866190490530000 Al
atom_frac 0.2500000000000000 0.2500000000000000 0.9087148864770001 Al
atom_frac 0.7500000000000000 0.7500000000000000 0.0912851135230000 Al
atom_frac 0.6227168893960000 0.0507890998060000 0.8375315739950000 F
atom_frac 0.8772831106040002 0.4492109001940001 0.8375315739950000 F
atom_frac 0.4492109001940001 0.6227168893960000 0.8375315739950000 F
atom_frac 0.0507890998060000 0.8772831106040002 0.8375315739950000 F
atom_frac 0.3772831106040000 0.5507890998060000 0.1624684260050000 F
atom_frac 0.1227168893960000 0.9492109001940000 0.1624684260050000 F
atom_frac 0.5507890998060000 0.1227168893960000 0.1624684260050000 F
atom_frac 0.9492109001940000 0.3772831106040000 0.1624684260050000 F
atom_frac 0.3772831106040000 0.9492109001940000 0.1624684260050000 F
atom_frac 0.1227168893960000 0.5507890998060000 0.1624684260050000 F
atom_frac 0.5507890998060000 0.3772831106040000 0.1624684260050000 F
atom_frac 0.9492109001940000 0.1227168893960000 0.1624684260050000 F
atom_frac 0.6227168893960000 0.4492109001940001 0.8375315739950000 F
atom_frac 0.8772831106040002 0.0507890998060000 0.8375315739950000 F
atom_frac 0.4492109001940001 0.8772831106040002 0.8375315739950000 F
atom_frac 0.0507890998060000 0.6227168893960000 0.8375315739950000 F
atom_frac 0.2500000000000000 0.0771623321170000 0.4080074059120000 F
atom_frac 0.2500000000000000 0.4228376678830000 0.4080074059120000 F
atom_frac 0.4228376678830000 0.2500000000000000 0.4080074059120000 F
atom_frac 0.0771623321170000 0.2500000000000000 0.4080074059120000 F
atom_frac 0.7500000000000000 0.5771623321170000 0.5919925940880000 F
atom_frac 0.7500000000000000 0.9228376678830000 0.5919925940880000 F
atom_frac 0.5771623321170000 0.7500000000000000 0.5919925940880000 F
atom_frac 0.9228376678830000 0.7500000000000000 0.5919925940880000 F
atom_frac 0.1212332539290000 0.1212332539290000 0.9103284418610000 F
atom_frac 0.3787667460710000 0.3787667460710000 0.9103284418610000 F
atom_frac 0.3787667460710000 0.1212332539290000 0.9103284418610000 F
atom_frac 0.1212332539290000 0.3787667460710000 0.9103284418610000 F
atom_frac 0.8787667460710001 0.6212332539290001 0.0896715581390000 F
atom_frac 0.6212332539290001 0.8787667460710001 0.0896715581390000 F
atom_frac 0.6212332539290001 0.6212332539290001 0.0896715581390000 F
atom_frac 0.8787667460710001 0.8787667460710001 0.0896715581390000 F
atom_frac 0.1275940288860000 0.8724059711140001 0.5000000000000000 F
atom_frac 0.3724059711140000 0.6275940288860000 0.5000000000000000 F
atom_frac 0.6275940288860000 0.1275940288860000 0.5000000000000000 F
atom_frac 0.8724059711140001 0.3724059711140000 0.5000000000000000 F
atom_frac 0.8724059711140001 0.1275940288860000 0.5000000000000000 F
atom_frac 0.6275940288860000 0.3724059711140000 0.5000000000000000 F
atom_frac 0.3724059711140000 0.8724059711140001 0.5000000000000000 F
atom_frac 0.1275940288860000 0.6275940288860000 0.5000000000000000 F
atom_frac 0.7500000000000000 0.2500000000000000 0.2468335514610000 F
atom_frac 0.2500000000000000 0.7500000000000000 0.2468335514610000 F
atom_frac 0.2500000000000000 0.7500000000000000 0.7531664485390001 F
atom_frac 0.7500000000000000 0.2500000000000000 0.7531664485390001 F
atom_frac 0.2500000000000000 0.2500000000000000 0.6615496663620000 F
atom_frac 0.7500000000000000 0.7500000000000000 0.3384503336380000 F
atom_frac 0.2500000000000000 0.2500000000000000 0.1591623049340000 F
atom_frac 0.7500000000000000 0.7500000000000000 0.8408376950660000 F