#=======================================================
# FHI-aims file: tests/data/test/pbe/tight/tier2/atomic_zora/4/RiSh_ICSD_988/geometry.in
# Created using the Atomic Simulation Environment (ASE)
# Fri Oct 28 14:00:21 2022
#=======================================================
lattice_vector 1.0000000000000000 0.0000000000000000 0.0000000000000000 
lattice_vector 0.0000000000000000 1.0000000000000000 0.0000000000000000 
lattice_vector 0.0000000000000000 0.0000000000000000 1.0000000000000000 
atom_frac 0.0000000000000000 0.0000000000000000 0.0000000000000000 Si
atom_frac 0.0000000000000000 0.0000000000000000 0.0000000000000000 Rh
