#=======================================================
#FHI-aims file: /eos/scratch/biebj/binaries/binaries_unrelaxed/pbe/tight/minimal/atomic_zora/8/73_Ta/geometry.in
#Created using the Atomic Simulation Environment (ASE)
#=======================================================
lattice_vector 4.4530000000000003 0.0000000000000000 0.0000000000000000 
lattice_vector 0.0000000000000003 4.4530000000000003 0.0000000000000000 
lattice_vector 0.0000000000000003 0.0000000000000003 4.4530000000000003 
atom 2.2265000000000001 2.2265000000000001 2.2265000000000001 C
atom 2.2265000000000001 0.0000000000000000 0.0000000000000000 C
atom 0.0000000000000001 2.2265000000000001 0.0000000000000000 C
atom 0.0000000000000001 0.0000000000000001 2.2265000000000001 C
atom 0.0000000000000000 0.0000000000000000 0.0000000000000000 Ta
atom 0.0000000000000003 2.2265000000000001 2.2265000000000001 Ta
atom 2.2265000000000001 0.0000000000000001 2.2265000000000001 Ta
atom 2.2265000000000001 2.2265000000000001 0.0000000000000000 Ta
